1642.0 22424.0 
1632.0 23133.0 
1627.0 23176.0 
1721.0 21739.0 
1794.0 21658.0 
1640.0 22835.0 
1647.0 21871.0 
1645.0 22333.0 
1784.0 21659.0 
1634.0 23079.0 
1805.0 21644.0 
1695.0 21761.0 
1678.0 21845.0 
